# Objective value = 62
WA1n 0
WA1p 0
WA2n 1
WA2p 0
WB1n 0
WB1p 0
WB2n 1
WB2p 0
WC1n 1
WC1p 0
WD1n 1
WD1p 0
WE1n 2
WE1p 0
WF1n 2
WF1p 0
WG1n 4
WG1p 0
WH1n 7
WH1p 0
WH2n 1
WH2p 0
WI1n 0
WI1p 7
WI2n 0
WI2p 1
WJ1n 19
WJ1p 0
WT1n 11
WT1p 0
5 7
a 0
b 0
c 0
d 0
e 0
f 0
g 0
h 0
i 0
j 0
k 0
l 1
m 1
n 0
o 0
